SCIP Status        : solving was interrupted [time limit reached]
Total Time         :    3600.04
  solving          :    3600.00
  presolving       :       0.14 (included in solving)
  reading          :       0.04
  copying          :       0.33 (25 #copies) (minimal 0.01, maximal 0.02, average 0.01)
Original Problem   :
  Problem name     : benchmark/normal_50_20_23.design
  Variables        : 3271 (50 binary, 0 integer, 0 implicit integer, 3221 continuous)
  Constraints      : 4453 initial, 4453 maximal
  Objective        : minimize, 1 non-zeros (abs.min = 1, abs.max = 1)
Presolved Problem  :
  Problem name     : t_benchmark/normal_50_20_23.design
  Variables        : 4693 (50 binary, 0 integer, 0 implicit integer, 4643 continuous)
  Constraints      : 4453 initial, 4461 maximal
  Objective        : minimize, 1 non-zeros (abs.min = 1, abs.max = 1)
  Nonzeros         : 23682 constraint, 0 clique table
Presolvers         :   ExecTime  SetupTime  Calls  FixedVars   AggrVars   ChgTypes  ChgBounds   AddHoles    DelCons    AddCons   ChgSides   ChgCoefs
  boundshift       :       0.00       0.00      0          0          0          0          0          0          0          0          0          0
  convertinttobin  :       0.00       0.00      0          0          0          0          0          0          0          0          0          0
  domcol           :       0.00       0.00      1          0          0          0          0          0          0          0          0          0
  dualagg          :       0.00       0.00      0          0          0          0          0          0          0          0          0          0
  dualcomp         :       0.00       0.00      1          0          0          0          0          0          0          0          0          0
  dualinfer        :       0.00       0.00      0          0          0          0          0          0          0          0          0          0
  dualsparsify     :       0.00       0.00      1          0          0          0          0          0          0          0          0          0
  gateextraction   :       0.00       0.00      0          0          0          0          0          0          0          0          0          0
  implics          :       0.00       0.00      1          0          0          0          0          0          0          0          0          0
  inttobinary      :       0.00       0.00      0          0          0          0          0          0          0          0          0          0
  qpkktref         :       0.00       0.00      0          0          0          0          0          0          0          0          0          0
  redvub           :       0.00       0.00      0          0          0          0          0          0          0          0          0          0
  sparsify         :       0.00       0.00      1          0          0          0          0          0          0          0          0          0
  stuffing         :       0.00       0.00      0          0          0          0          0          0          0          0          0          0
  trivial          :       0.00       0.00      2        190          0          0          0          0          0          0          0          0
  tworowbnd        :       0.00       0.00      0          0          0          0          0          0          0          0          0          0
  dualfix          :       0.00       0.00      2        190          0          0          0          0          0          0          0          0
  genvbounds       :       0.00       0.00      0          0          0          0          0          0          0          0          0          0
  probing          :       0.02       0.00      1          0          0          0          0          0          0          0          0          0
  pseudoobj        :       0.00       0.00      0          0          0          0          0          0          0          0          0          0
  symmetry         :       0.02       0.00      1          0          0          0          0          0          0          0          0          0
  vbounds          :       0.00       0.00      0          0          0          0          0          0          0          0          0          0
  linear           :       0.00       0.00      3          0          0          0          0          0          0          0          0          0
  nonlinear        :       0.10       0.03      4          0          0          0        400          0          0          0          0          0
  benders          :       0.00       0.00      0          0          0          0          0          0          0          0          0          0
  components       :       0.00       0.00      1          0          0          0          0          0          0          0          0          0
  root node        :          -          -      -          0          -          -       6661          -          -          -          -          -
Constraints        :     Number  MaxNumber  #Separate #Propagate    #EnfoLP    #EnfoRelax  #EnfoPS    #Check   #ResProp    Cutoffs    DomReds       Cuts    Applied      Conss   Children
  benderslp        :          0          0          0          0      25955          0          0       2463          0          0          0          0          0          0          0
  integral         :          0          0          0          0      25955          0          0       2463          0          0      11717          0          0          0      23948
  linear           :       3052+      3060         18     223629          3          0          0       2457          0        376    6859699          0          0          0          0
  nonlinear        :       1401       1401      53463     223253      13825          0          0       1887          0       1122   13235080     754328     752384          0          0
  benders          :          0          0          0          0          3          0          0          4          0          0          0          0          0          0          0
  countsols        :          0          0          0          0          3          0          0          4          0          0          0          0          0          0          0
  components       :          0          0          0          0          0          0          0          0          0          0          0          0          0          0          0
Constraint Timings :  TotalTime  SetupTime   Separate  Propagate     EnfoLP     EnfoPS     EnfoRelax   Check    ResProp    SB-Prop
  benderslp        :       0.02       0.00       0.00       0.00       0.02       0.00       0.00       0.00       0.00       0.00
  integral         :      38.36       0.00       0.00       0.00      38.36       0.00       0.00       0.00       0.00       0.00
  linear           :      32.63       0.00       0.00      32.18       0.00       0.00       0.00       0.38       0.00       0.07
  nonlinear        :     330.30       0.03     154.61     134.16      38.28       0.00       0.00       2.35       0.00       0.87
  benders          :       0.00       0.00       0.00       0.00       0.00       0.00       0.00       0.00       0.00       0.00
  countsols        :       0.00       0.00       0.00       0.00       0.00       0.00       0.00       0.00       0.00       0.00
  components       :       0.03       0.00       0.00       0.03       0.00       0.00       0.00       0.00       0.00       0.00
Propagators        : #Propagate   #ResProp    Cutoffs    DomReds
  dualfix          :          2          0          0          0
  genvbounds       :          0          0          0          0
  nlobbt           :          0          0          0          0
  obbt             :          0          0          0          0
  probing          :          0          0          0          0
  pseudoobj        :     138731          0          0         18
  redcost          :      62382          0          0       2394
  rootredcost      :          6          0          0       5242
  symmetry         :          0          0          0          0
  vbounds          :      30304          0          0          0
Propagator Timings :  TotalTime  SetupTime   Presolve  Propagate    ResProp    SB-Prop
  dualfix          :       0.00       0.00       0.00       0.00       0.00       0.00
  genvbounds       :       0.15       0.00       0.00       0.15       0.00       0.00
  nlobbt           :       0.00       0.00       0.00       0.00       0.00       0.00
  obbt             :       0.00       0.00       0.00       0.00       0.00       0.00
  probing          :       0.02       0.00       0.02       0.00       0.00       0.00
  pseudoobj        :       0.31       0.00       0.00       0.30       0.00       0.01
  redcost          :       3.22       0.00       0.00       3.22       0.00       0.00
  rootredcost      :       0.18       0.00       0.00       0.18       0.00       0.00
  symmetry         :       0.08       0.00       0.02       0.06       0.00       0.00
  vbounds          :       0.11       0.00       0.00       0.11       0.00       0.00
Conflict Analysis  :       Time      Calls    Success    DomReds  Conflicts   Literals    Reconvs ReconvLits   Dualrays   Nonzeros   LP Iters   (pool size: [--,--])
  propagation      :       0.00          0          0          -          0        0.0          0        0.0          -          -          -
  infeasible LP    :       0.00          1          1          -          0        0.0          0        0.0        212      192.0          0
  bound exceed. LP :      19.78       4737        211          -          0        0.0          0        0.0          0        0.0      40736
  strong branching :       0.00          0          0          -          0        0.0          0        0.0          -          -          0
  pseudo solution  :       0.00          0          0          -          0        0.0          0        0.0          -          -          -
  applied globally :       0.00          -          -          0          0        0.0          -          -        212          -          -
  applied locally  :          -          -          -          0          0        0.0          -          -          0          -          -
Separators         :   ExecTime  SetupTime      Calls  RootCalls    Cutoffs    DomReds  FoundCuts ViaPoolAdd  DirectAdd    Applied ViaPoolApp  DirectApp      Conss
  cut pool         :       0.00          -          0          0          -          -          0          0          -          -          -          -          -    (maximal pool size:          0)
  aggregation      :       2.19       0.00        764         18          0          0          0          0          0          0          0          0          0
  > cmir           :          -          -          -          -          -          -          -          0          0          0          0          0          -
  > flowcover      :          -          -          -          -          -          -          -          0          0          0          0          0          -
  > knapsackcover  :          -          -          -          -          -          -          -          0          0          0          0          0          -
  cgmip            :       0.00       0.00          0          0          0          0          0          0          0          0          0          0          0
  clique           :       0.00       0.00          1          1          0          0          0          0          0          0          0          0          0
  closecuts        :       0.00       0.00          0          0          0          0          0          0          0          0          0          0          0
  convexproj       :       0.00       0.00          0          0          0          0          0          0          0          0          0          0          0
  disjunctive      :       0.00       0.00          0          0          0          0          0          0          0          0          0          0          0
  eccuts           :       0.00       0.00          0          0          0          0          0          0          0          0          0          0          0
  gauge            :       0.00       0.00          0          0          0          0          0          0          0          0          0          0          0
  gomory           :       1.77       0.00        747         10          0          0          0          0          0          0          0          0          0
  > gomorymi       :          -          -          -          -          -          -          -          0          0          0          0          0          -
  > strongcg       :          -          -          -          -          -          -          -          0          0          0          0          0          -
  impliedbounds    :       0.18       0.00        764         18          0          0          0          0          0          0          0          0          0
  interminor       :       0.00       0.00          0          0          0          0          0          0          0          0          0          0          0
  intobj           :       0.00       0.00          0          0          0          0          0          0          0          0          0          0          0
  mcf              :       0.00       0.00          2          2          0          0          0          0          0          0          0          0          0
  minor            :       0.01       0.00          0          0          0          0          0          0          0          0          0          0          0
  mixing           :       0.14       0.00       1077         18          0          0          0          0          0          0          0          0          0
  oddcycle         :       0.00       0.00          0          0          0          0          0          0          0          0          0          0          0
  rapidlearning    :       0.00       0.00          0          0          0          0          0          0          0          0          0          0          0
  rlt              :       0.00       0.00         10         10          0          0          0          0          0          0          0          0          0
  zerohalf         :       0.66       0.00        755         18          0          0          0          0          0          0          0          0          0
Cutselectors       :   ExecTime  SetupTime      Calls  RootCalls   Selected     Forced   Filtered  RootSelec   RootForc   RootFilt 
  hybrid           :       0.43       0.00      53145         18     481360          0       1844       5366          0          0
Pricers            :   ExecTime  SetupTime      Calls       Vars
  problem variables:       0.00          -          0          0
Branching Rules    :   ExecTime  SetupTime   BranchLP  BranchExt   BranchPS    Cutoffs    DomReds       Cuts      Conss   Children
  allfullstrong    :       0.00       0.00          0          0          0          0          0          0          0          0
  cloud            :       0.00       0.00          0          0          0          0          0          0          0          0
  distribution     :       0.00       0.00          0          0          0          0          0          0          0          0
  fullstrong       :       0.00       0.00          0          0          0          0          0          0          0          0
  inference        :       0.00       0.00          0          0          0          0          0          0          0          0
  leastinf         :       0.00       0.00          0          0          0          0          0          0          0          0
  lookahead        :       0.00       0.00          0          0          0          0          0          0          0          0
  mostinf          :       0.00       0.00          0          0          0          0          0          0          0          0
  multaggr         :       0.00       0.00          0          0          0          0          0          0          0          0
  nodereopt        :       0.00       0.00          0          0          0          0          0          0          0          0
  pscost           :       0.00       0.00          0          0          0          0          0          0          0          0
  random           :       0.00       0.00          0          0          0          0          0          0          0          0
  relpscost        :      38.27       0.00      12130          0          0          0      11717          0          0      23948
  vanillafullstrong:       0.00       0.00          0          0          0          0          0          0          0          0
Primal Heuristics  :   ExecTime  SetupTime      Calls      Found       Best
  LP solutions     :       0.00          -          -          3          3
  relax solutions  :       0.00          -          -          0          0
  pseudo solutions :       0.00          -          -          0          0
  strong branching :       0.00          -          -          0          0
  actconsdiving    :       0.00       0.00          0          0          0
  adaptivediving   :       7.82       0.00         26          0          0
  alns             :       1.05       0.00          7          0          0
  bound            :       0.00       0.00          0          0          0
  clique           :       0.00       0.00          0          0          0
  coefdiving       :       0.00       0.00          0          0          0
  completesol      :       0.00       0.00          0          0          0
  conflictdiving   :      39.55       0.00        148          0          0
  crossover        :     169.95       0.00          7          1          1
  dins             :       0.00       0.00          0          0          0
  distributiondivin:      58.52       0.00        148          0          0
  dps              :       0.00       0.00          0          0          0
  dualval          :       0.00       0.00          0          0          0
  farkasdiving     :       0.01       0.00          0          0          0
  feaspump         :      25.20       0.00         30          0          0
  fixandinfer      :       0.00       0.00          0          0          0
  fracdiving       :      24.28       0.00        148          0          0
  gins             :       0.02       0.00          0          0          0
  guideddiving     :      26.34       0.00        147          0          0
  indicator        :       0.10       0.00          0          0          0
  indicatordiving  :       0.00       0.00          0          0          0
  intdiving        :       0.00       0.00          0          0          0
  intshifting      :       3.47       0.00         36          0          0
  linesearchdiving :      31.20       0.00        147          0          0
  localbranching   :       0.00       0.00          0          0          0
  locks            :       0.07       0.00          1          0          0
  lpface           :       0.04       0.00          0          0          0
  mpec             :       2.70       0.00          1          0          0
  multistart       :       0.00       0.00          0          0          0
  mutation         :       0.00       0.00          0          0          0
  nlpdiving        :       6.36       0.00          6          0          0
  objpscostdiving  :      43.58       0.00         31          0          0
  octane           :       0.00       0.00          0          0          0
  ofins            :       0.00       0.00          0          0          0
  oneopt           :       0.02       0.00          6          0          0
  padm             :       0.00       0.00          0          0          0
  proximity        :       0.00       0.00          0          0          0
  pscostdiving     :      26.33       0.00        148          0          0
  randrounding     :       0.92       0.00        782          0          0
  rens             :       0.00       0.00          0          0          0
  reoptsols        :       0.00       0.00          0          0          0
  repair           :       0.00       0.00          0          0          0
  rins             :      74.15       0.00         11          1          1
  rootsoldiving    :      30.53       0.00         54          0          0
  rounding         :       0.72       0.00       2978          0          0
  shiftandpropagate:       0.04       0.00          1          0          0
  shifting         :       0.64       0.00        932          0          0
  simplerounding   :       0.04       0.00          0          0          0
  subnlp           :      13.13       0.00         13          1          1
  trivial          :       0.00       0.00          2          0          0
  trivialnegation  :       0.00       0.00          0          0          0
  trustregion      :       0.00       0.00          0          0          0
  trysol           :       0.04       0.00          0          0          0
  twoopt           :       0.00       0.00          0          0          0
  undercover       :       0.55       0.00          1          0          0
  vbounds          :       0.00       0.00          0          0          0
  veclendiving     :      43.10       0.00        147          0          0
  zeroobj          :       0.00       0.00          0          0          0
  zirounding       :       0.04       0.00       1000          0          0
  other solutions  :          -          -          -          0          -
Diving (single)    :      Calls      Nodes   LP Iters Backtracks  Conflicts   MinDepth   MaxDepth   AvgDepth  RoundSols  NLeafSols  MinSolDpt  MaxSolDpt  AvgSolDpt
  actconsdiving    :          0          -          -          -          -          -          -          -          -          -          -          -          -
  coefdiving       :          0          -          -          -          -          -          -          -          -          -          -          -          -
  conflictdiving   :        148       2504     168091        297          0         28         50       39.6          0          -          -          -          -
  distributiondivin:        148       2485     189492        334          2         25         50       39.3          0          -          -          -          -
  farkasdiving     :          0          -          -          -          -          -          -          -          -          -          -          -          -
  fracdiving       :        148       3324     110727          7          0         36         50       47.7          0          -          -          -          -
  guideddiving     :        147       3349     123768         38          0         37         50       46.9          0          -          -          -          -
  indicatordiving  :          0          -          -          -          -          -          -          -          -          -          -          -          -
  linesearchdiving :        147       2746     137962        110          0         36         50       43.9          0          -          -          -          -
  pscostdiving     :        148       3369     123488          8          0         34         50       48.5          0          -          -          -          -
  veclendiving     :        147       2075     145695        458          2         27         50       35.3          0          -          -          -          -
Diving (adaptive)  :      Calls      Nodes   LP Iters Backtracks  Conflicts   MinDepth   MaxDepth   AvgDepth  RoundSols  NLeafSols  MinSolDpt  MaxSolDpt  AvgSolDpt
  actconsdiving    :          3        122       8771         42          0         41         49       44.7          0          -          -          -          -
  coefdiving       :          4         34       1982          9          0         29         41       33.2          0          -          -          -          -
  conflictdiving   :          0          -          -          -          -          -          -          -          -          -          -          -          -
  distributiondivin:          0          -          -          -          -          -          -          -          -          -          -          -          -
  farkasdiving     :          0          -          -          -          -          -          -          -          -          -          -          -          -
  fracdiving       :          4        124       3901          0          0         48         50       49.2          0          -          -          -          -
  guideddiving     :          5        101       4174          0          0         42         49       45.8          0          -          -          -          -
  indicatordiving  :          0          -          -          -          -          -          -          -          -          -          -          -          -
  linesearchdiving :          3         50       2404          1          0         44         46       45.0          0          -          -          -          -
  pscostdiving     :          6        149       5496          0          0         48         50       49.7          0          -          -          -          -
  veclendiving     :          1         28       2088          8          0         39         39       39.0          0          -          -          -          -
Neighborhoods      :      Calls  SetupTime  SolveTime SolveNodes       Sols       Best       Exp3  EpsGreedy        UCB TgtFixRate  Opt  Inf Node Stal  Sol  Usr Othr Actv
  rens             :          1       0.03       0.10          0          0          0    0.00000   -1.00000    0.55929      0.900    0    0    0    0    0    0    1    1
  rins             :          1       0.03       0.05          0          0          0    0.00000   -1.00000    0.55929      0.900    0    0    0    0    0    0    1    1
  mutation         :          1       0.04       0.19          0          0          0    0.00000   -1.00000    0.55929      0.900    0    0    0    0    0    0    1    1
  localbranching   :          1       0.04       0.15          0          0          0    0.00000   -1.00000    0.55929      0.900    0    0    0    0    0    0    1    1
  crossover        :          0       0.00       0.00          0          0          0    0.00000   -1.00000    0.05929      0.900    0    0    0    0    0    0    0    1
  proximity        :          1       0.04       0.12          0          0          0    0.00000   -1.00000    0.55929      0.900    0    0    0    0    0    0    1    1
  zeroobjective    :          1       0.01       0.00          0          0          0    0.00000   -1.00000    0.05929      0.900    0    0    0    0    0    0    1    1
  dins             :          1       0.05       0.14          0          0          0    0.00000   -1.00000    0.55929      0.900    0    0    0    0    0    0    1    1
  trustregion      :          0       0.00       0.00          0          0          0    0.00000   -1.00000    1.00000      0.900    0    0    0    0    0    0    0    0
Expressions        :   #IntEval  IntEvalTi   #RevProp  RevPropTi    DomReds    Cutoffs  #Estimate  EstimTime  Branching  #Simplify SimplifyTi Simplified
  pow              :   22653151       5.25    8224176       2.16   13035064          0     398497       0.19          0       3240       0.00          0
  prod             :   17054373       5.13      83849       0.01        982          0          0       0.00          0       2002       0.00       1000
  sum              :   21125532       5.36   14798490       4.90     742727        119        401       0.00          0       3202       0.01        401
  var              :   46196002       9.81          0       0.00          0          0          0       0.00          0       8041       0.01          0
  varidx           :          0       0.00          0       0.00          0          0          0       0.00          0          0       0.00          0
Nonlinear Conshdlr :   WeakSepa  TightenLP DespTghtLP DespBranch DespCutoff    ForceLP  CanonTime
  enforce          :     206218          0          0          0          0          0
  presolve         :                                                                         0.07
Nlhdlrs            :    Detects  DetectAll DetectTime   #IntEval  IntEvalTi   #RevProp  RevPropTi    DomReds    Cutoffs   #Enforce   EnfoTime       Cuts  Branching
  soc              :       1000       1000       0.00          0       0.00          0       0.00          0          0   37755264      60.61     313950          0
  convex           :          1          1       0.00          0       0.00          0       0.00          0          0      42282       0.33      42281          0
  concave          :          0          0       0.00          0       0.00          0       0.00          0          0          0       0.00          0          0
  quotient         :          0          0       0.00          0       0.00          0       0.00          0          0          0       0.00          0          0
  quadratic        :          0          0       0.00          0       0.00          0       0.00          0          0          0       0.00          0          0
  default          :       6693      33465       0.00   60827430      37.71   23115128      47.01   13778773        119     398898       0.93     398097          0
  bilinear         :          0          0       0.00          0       0.00          0       0.00          0          0          0       0.00          0          0
  perspective      :          0          0       0.00          0       0.00          0       0.00          0          0          0       0.00          0          0
LP                 :       Time      Calls Iterations  Iter/call   Iter/sec  Time-0-It Calls-0-It    ItLimit
  primal LP        :    1078.06      13413          0       0.00       0.00    1077.98      13413
  dual LP          :    1395.39      87212    6695476      78.90    4798.28       1.32       2357
  lex dual LP      :       0.00          0          0       0.00          -
  barrier LP       :       0.00          0          0       0.00          -       0.00          0
  resolve instable :       0.00          0          0       0.00          -
  diving/probing LP:     246.62       8970    1360481     151.67    5516.51
  strong branching :      32.16        421     178315     423.55    5544.62          -          -        357
    (at root node) :          -         21      15734     749.24          -
  conflict analysis:       8.48       4177      40736       9.75    4803.77
NLP relaxation     :
  solve time       :       6.31 (9 calls)
  convexity        :  nonconvex (252 linear rows, 401 convex ineq., 1000 nonconvex ineq., 0 nonlinear eq. or two-sided ineq.)
NLP Solvers        :  #Problems  ProblemTi    #Solves  SolveTime      #Iter  Time/Iter      #Okay #TimeLimit #IterLimit #LObjLimit #Interrupt  #NumError #EvalError  #OutOfMem #LicenseEr #OtherTerm   #GlobOpt    #LocOpt  #Feasible #LocInfeas #GlobInfea #Unbounded   #Unknown
  ipopt            :         15      13.47         24      20.17       1041       0.02         18          0          6          0          0          0          0          0          0          0          0          3          1          9          0          0         11
B&B Tree           :
  number of runs   :          1
  nodes            :      17178 (11974 internal, 5204 leaves)
  feasible leaves  :          3
  infeas. leaves   :          0
  objective leaves :       5200
  nodes (total)    :      17178 (11974 internal, 5204 leaves)
  nodes left       :       6772
  max depth        :         45
  max depth (total):         45
  backtracks       :       3284 (19.1%)
  early backtracks :          0 (0.0%)
  nodes exc. ref.  :          0 (0.0%)
  delayed cutoffs  :          0
  repropagations   :         14 (0 domain reductions, 0 cutoffs)
  avg switch length:       7.90
  switching time   :    1062.78
Estim. Tree Size   :      34354
Estimation Tree    : 23949 nodes (17177 visited, 11974 internal, 5203 leaves, 6772 open), weight: 0.0000 completed 0.2867
Estimations        :      estim      value      trend resolution     smooth
  wbe              : 7628780547          -          -          -          -
  tree-profile     :         -1          -          -          -          -
  gap              :     238331    0.80929    0.00001          8     243799
  tree-weight      :      34354    0.00000    0.00000          8      34329
  leaf-frequency   :      97273    0.30288    0.00004          8      97030
  ssg              :     121826    0.54722   -0.00008          8     122868
  open-nodes       :      34354 6772.00000    2.46869          8      34329
Root Node          :
  First LP value   : -1.12891357832294e+00
  First LP Iters   :       8464 (13875.41 Iter/sec)
  First LP Time    :       0.61
  Final Dual Bound : -4.86916003688411e-01
  Final Root Iters :      21586
  Root LP Estimate : -3.59768700163620e-01
Solution           :
  Solutions found  :          6 (6 improvements)
  First Solution   : -3.16682716491058e-01   (in run 1, after 1 nodes, 3.01 seconds, depth 0, found by <feaspump>)
  Gap First Sol.   :     256.48 %
  Gap Last Sol.    :      24.64 %
  Primal Bound     : -3.53468383362833e-01   (in run 1, after 12522 nodes, 2681.41 seconds, depth 34, found by <relaxation>)
  Dual Bound       : -4.36765891728739e-01
  Gap              :      23.57 %
Integrals          :      Total       Avg%
  primal-dual      :   80751.20      22.43
  primal-ref       :          -          - (not evaluated)
  dual-ref         :          -          - (not evaluated)
